!MP2 cc-pVDZ NoFrozencore
%pal nprocs 4 end
%maxcore 1024
* xyz 0 1