#ISPIN=2
ENCUT = 400
GGA=PE
EDIFF = 1E-06
ALGO = Fast
ISIF=2
ISMEAR=0
SIGMA = 0.2
LWAVE =.F.
LCHARG=.F.
LREAL = A
PREC = Accu
LASPH = .TRUE.
IVDW = 11
NPAR = 4
ISYM=0
