! UKS B3LYP Def2-SVP
%maxcore 2000
* xyz 0 1
